c ca-HepTh: Collaboration network of Arxiv High Energy Physics Theory category (there is an edge if authors coauthored at least one paper) https://snap.stanford.edu/data/ca-HepTh.html
p edge 19 18
e 1 14
e 1 7
e 2 7
e 2 5
e 3 18
e 3 12
e 4 10
e 4 15
e 6 12
e 7 15
e 7 17
e 7 13
e 8 18
e 9 11
e 11 19
e 12 16
e 12 15
e 16 19
l 18
t 5 9
